80 254687
1 44 35 69 8 47 21 9 56 75 20 31 42 7 19 24 71 14 54 23 38 46 62 55 30 12 17 78 43 77 40 65 39 64 48 66 27 11 57 5 72 53 2 73 74 16 36 15 60 49 25 3 34 52 80 33 6 22 37 68 10 50 45 58 18 59 29 26 41 4 61 79 67 13 51 63 32 70 76 28 
